
<<< setup


<<< generate

CPXPARAM_TimeLimit                               9999
Tried aggregator 1 time.
MIP Presolve eliminated 19 rows and 19 columns.
Reduced MIP has 441 rows, 781 columns, and 2304 nonzeros.
Reduced MIP has 400 binaries, 381 generals, 0 SOSs, and 0 indicators.
Presolve time = 0,00 sec. (1,39 ticks)
Found incumbent of value 98,389280 after 0,00 sec. (3,73 ticks)
Probing fixed 19 vars, tightened 0 bounds.
Probing time = 0,00 sec. (3,10 ticks)
Cover probing fixed 0 vars, tightened 361 bounds.
Tried aggregator 1 time.
MIP Presolve eliminated 21 rows and 39 columns.
MIP Presolve modified 362 coefficients.
Reduced MIP has 420 rows, 742 columns, and 2206 nonzeros.
Reduced MIP has 381 binaries, 361 generals, 0 SOSs, and 0 indicators.
Presolve time = 0,00 sec. (2,40 ticks)
Probing time = 0,00 sec. (2,68 ticks)
Clique table members: 40.
MIP emphasis: balance optimality and feasibility.
MIP search method: dynamic search.
Parallel mode: deterministic, using up to 4 threads.
Root relaxation solution time = 0,00 sec. (3,63 ticks)

        Nodes                                         Cuts/
   Node  Left     Objective  IInf  Best Integer    Best Bound    ItCnt     Gap

*     0+    0                           98,3893        0,0000           100,00%
      0     0       31,5959    47       98,3893       31,5959      238   67,89%
      0     0       36,2409    61       98,3893      Cuts: 69      425   63,17%
*     0+    0                           38,3054       36,2409             5,39%
      0     0       37,7332    88       38,3054      Cuts: 51      729    1,49%

Repeating presolve.
Tried aggregator 2 times.
MIP Presolve eliminated 268 rows and 550 columns.
Aggregator did 29 substitutions.
Reduced MIP has 123 rows, 163 columns, and 577 nonzeros.
Reduced MIP has 70 binaries, 93 generals, 0 SOSs, and 0 indicators.
Presolve time = 0,00 sec. (0,85 ticks)
Probing time = 0,00 sec. (0,13 ticks)
Tried aggregator 1 time.
Reduced MIP has 123 rows, 163 columns, and 577 nonzeros.
Reduced MIP has 70 binaries, 93 generals, 0 SOSs, and 0 indicators.
Presolve time = 0,00 sec. (0,37 ticks)
Represolve time = 0,00 sec. (2,72 ticks)
Probing time = 0,00 sec. (0,13 ticks)
Clique table members: 26.
MIP emphasis: balance optimality and feasibility.
MIP search method: dynamic search.
Parallel mode: deterministic, using up to 4 threads.
Root relaxation solution time = 0,00 sec. (1,71 ticks)

        Nodes                                         Cuts/
   Node  Left     Objective  IInf  Best Integer    Best Bound    ItCnt     Gap

*     0+    0                           38,3054       37,7332             1,49%
      0     0       37,7332    70       38,3054       37,7332      933    1,49%
*     0+    0                           38,2093       37,7332             1,25%
      0     0       37,7385    65       38,2093      Cuts: 40      975    1,23%
      0     0       37,8402    80       38,2093      Cuts: 41     1059    0,97%
      0     0       37,8658    79       38,2093      Cuts: 19     1082    0,90%
      0     0       37,8658    82       38,2093      Cuts: 22     1102    0,90%
      0     0       37,8868    68       38,2093       Cuts: 6     1119    0,84%
      0     0       37,9436    77       38,2093      Cuts: 20     1158    0,70%
      0     0       37,9468    91       38,2093      Cuts: 17     1191    0,69%
      0     0       37,9603    81       38,2093      Cuts: 13     1213    0,65%
      0     0       37,9690    91       38,2093      Cuts: 16     1253    0,63%
      0     0       37,9725    93       38,2093      Cuts: 17     1277    0,62%
      0     0        cutoff             38,2093       38,2093     1277    0,00%
Elapsed time = 0,24 sec. (140,67 ticks, tree = 0,01 MB, solutions = 3)

Cover cuts applied:  5
Implied bound cuts applied:  9
Flow cuts applied:  7
Mixed integer rounding cuts applied:  3
Zero-half cuts applied:  7
Lift and project cuts applied:  5
Gomory fractional cuts applied:  3

Root node processing (before b&c):
  Real time             =    0,24 sec. (140,72 ticks)
Parallel b&c, 4 threads:
  Real time             =    0,00 sec. (0,00 ticks)
  Sync time (average)   =    0,00 sec.
  Wait time (average)   =    0,00 sec.
                          ------------
Total (root+branch&cut) =    0,24 sec. (140,72 ticks)

<<< solve


OBJECTIVE: 38.20928
12/18/2018 23:39:08 374
solving time ~= 246.946044922
Done
 [[0 0 0 2 0 0 0 0 0 0 0 0 0 0 0 0 0 0 0 0]
         [0 0 4 0 0 0 0 0 0 0 0 0 0 0 0 0 0 0 0 0]
         [3 0 0 0 0 0 0 0 0 0 0 0 0 0 0 0 0 0 0 0]
         [0 0 0 0 1 0 0 0 0 0 0 0 0 0 0 0 0 0 0 0]
         [0 0 0 0 0 0 0 20 0 0 0 0 0 0 0 0 0 0 0 0]
         [0 5 0 0 0 0 0 0 0 0 0 0 0 0 0 0 0 0 0 0]
         [0 0 0 0 0 6 0 0 0 0 0 0 0 0 0 0 0 0 0 0]
         [0 0 0 0 0 0 0 0 0 0 0 19 0 0 0 0 0 0 0 0]
         [0 0 0 0 0 0 7 0 0 0 0 0 0 0 0 0 0 0 0 0]
         [0 0 0 0 0 0 0 0 8 0 0 0 0 0 0 0 0 0 0 0]
         [0 0 0 0 0 0 0 0 0 9 0 0 0 0 0 0 0 0 0 0]
         [0 0 0 0 0 0 0 0 0 0 0 0 0 18 0 0 0 0 0 0]
         [0 0 0 0 0 0 0 0 0 0 0 0 0 0 0 0 0 14 0 0]
         [0 0 0 0 0 0 0 0 0 0 0 0 0 0 17 0 0 0 0 0]
         [0 0 0 0 0 0 0 0 0 0 0 0 0 0 0 16 0 0 0 0]
         [0 0 0 0 0 0 0 0 0 0 0 0 15 0 0 0 0 0 0 0]
         [0 0 0 0 0 0 0 0 0 0 10 0 0 0 0 0 0 0 0 0]
         [0 0 0 0 0 0 0 0 0 0 0 0 0 0 0 0 0 0 0 13]
         [0 0 0 0 0 0 0 0 0 0 0 0 0 0 0 0 11 0 0 0]
         [0 0 0 0 0 0 0 0 0 0 0 0 0 0 0 0 0 0 12 0]]

<<< post process


<<< done

